sat
(= |goto_symex::&92;guard#1| true)
(= |goto_symex::&92;guard#2| false)
(= |nondet_symex::nondet1| false)
(= |memory_model::choice_rf_1_22_0_9_T_0| true)
(= |memory_model::choice_rf_1_22_2_39_T_1| false)
(= |memory_model::choice_rf_2_38_0_9_T_2| false)
(= |memory_model::choice_rf_2_38_1_23_T_3| true)
(= |memory_model::choice_rf_0_39_0_7_T_4| false)
(= |memory_model::choice_rf_0_39_0_35_T_5| true)
(= |memory_model::choice_rf_0_51_0_18_F_6| false)
(= |memory_model::choice_rf_0_51_1_17_F_7| false)
(= |memory_model::choice_rf_0_51_2_35_F_8| true)
(= |memory_model::choice_rf_1_7_0_18_F_9| true)
(= |memory_model::choice_rf_1_7_0_57_F_10| false)
(= |memory_model::choice_rf_1_7_2_35_F_11| false)
(= |memory_model::choice_rf_2_29_0_18_F_12| false)
(= |memory_model::choice_rf_2_29_0_57_F_13| false)
(= |memory_model::choice_rf_2_29_1_17_F_14| true)
(= |memory_model::choice_rf_0_43_0_10_F_15| false)
(= |memory_model::choice_rf_0_43_1_21_F_16| true)
(= |memory_model::choice_rf_0_43_2_37_F_17| false)
(= |memory_model::choice_rf_1_20_0_10_F_18| false)
(= |memory_model::choice_rf_1_20_2_37_F_19| true)
(= |memory_model::choice_rf_2_36_0_10_F_20| true)
(= |memory_model::choice_rf_2_36_1_21_F_21| false)
(= |memory_model::choice_rf_0_61_0_11_F_22| false)
(= |memory_model::choice_rf_0_61_1_8_F_23| true)
(= |memory_model::choice_rf_0_60_0_12_F_24| false)
(= |memory_model::choice_rf_0_60_2_20_F_25| true)
(= |memory_model::choice_rf_2_18_0_12_F_26| false)
(= |memory_model::choice_rf_0_59_0_13_F_27| false)
(= |memory_model::choice_rf_0_59_2_23_F_28| true)
(= |memory_model::choice_rf_2_21_0_13_F_29| false)
(= |memory_model::choice_rf_0_45_0_14_F_30| false)
(= |memory_model::choice_rf_0_45_0_44_F_31| true)
(= |memory_model::choice_rf_0_58_0_15_F_32| false)
(= |memory_model::choice_rf_0_64_0_15_F_33| false)
(= |memory_model::choice_rf_0_64_0_63_F_34| true)
(= |memory_model::choice_rf_0_65_0_15_F_35| false)
(= |memory_model::choice_rf_0_65_0_63_F_36| true)
(= |memory_model::choice_rf_0_50_0_21_F_37| true)
(= |memory_model::choice_rf_2_5_0_21_F_38| true)
(= |memory_model::choice_rf_2_5_0_54_F_39| false)
(= |memory_model::choice_rf_1_5_0_22_F_40| true)
(= |memory_model::choice_rf_2_2_0_22_F_41| true)
(= |memory_model::choice_rf_2_2_1_10_F_42| false)
(= |memory_model::choice_rf_2_1_0_23_F_43| true)
(= |memory_model::choice_rf_2_28_0_23_F_44| false)
(= |memory_model::choice_rf_2_28_2_8_F_45| true)
(= |memory_model::choice_rf_0_49_0_24_F_46| false)
(= |memory_model::choice_rf_0_49_2_11_F_47| true)
(= |memory_model::choice_rf_2_4_0_24_F_48| false)
(= |memory_model::choice_rf_2_4_0_53_F_49| false)
(= |memory_model::choice_rf_1_3_0_25_F_50| false)
(= |memory_model::choice_rf_1_3_2_10_F_51| true)
(= |memory_model::choice_rf_2_3_0_25_F_52| false)
(= |memory_model::choice_rf_2_3_1_9_F_53| false)
(= |memory_model::choice_rf_2_0_0_26_F_54| false)
(= |memory_model::choice_rf_2_27_0_26_F_55| false)
(= |memory_model::choice_rf_2_27_2_9_F_56| true)
(= |memory_model::choice_rf_0_48_0_29_F_57| false)
(= |memory_model::choice_rf_0_48_1_13_F_58| true)
(= |memory_model::choice_rf_0_48_2_14_F_59| false)
(= |memory_model::choice_rf_1_2_0_29_F_60| false)
(= |memory_model::choice_rf_1_2_2_14_F_61| true)
(= |memory_model::choice_rf_2_7_0_29_F_62| true)
(= |memory_model::choice_rf_2_7_1_13_F_63| false)
(= |memory_model::choice_rf_2_26_0_29_F_64| false)
(= |memory_model::choice_rf_2_26_1_13_F_65| true)
(= |memory_model::choice_rf_2_26_2_14_F_66| false)
(= |memory_model::choice_rf_0_52_0_30_F_67| false)
(= |memory_model::choice_rf_0_52_1_16_F_68| false)
(= |memory_model::choice_rf_0_52_2_12_F_69| false)
(= |memory_model::choice_rf_0_52_2_34_F_70| true)
(= |memory_model::choice_rf_1_6_0_30_F_71| false)
(= |memory_model::choice_rf_1_6_0_56_F_72| false)
(= |memory_model::choice_rf_1_6_2_12_F_73| true)
(= |memory_model::choice_rf_1_6_2_34_F_74| false)
(= |memory_model::choice_rf_2_6_0_30_F_75| true)
(= |memory_model::choice_rf_2_6_0_56_F_76| false)
(= |memory_model::choice_rf_2_6_1_16_F_77| false)
(= |memory_model::choice_rf_2_30_0_30_F_78| false)
(= |memory_model::choice_rf_2_30_0_56_F_79| false)
(= |memory_model::choice_rf_2_30_1_16_F_80| true)
(= |memory_model::choice_rf_2_30_2_12_F_81| false)
(= |memory_model::choice_rf_0_46_0_31_F_82| false)
(= |memory_model::choice_rf_0_46_1_12_F_83| true)
(= |memory_model::choice_rf_0_46_2_15_F_84| false)
(= |memory_model::choice_rf_1_1_0_31_F_85| false)
(= |memory_model::choice_rf_1_1_2_15_F_86| true)
(= |memory_model::choice_rf_2_24_0_31_F_87| false)
(= |memory_model::choice_rf_2_24_1_12_F_88| true)
(= |memory_model::choice_rf_2_24_2_15_F_89| false)
(= |memory_model::choice_rf_0_47_0_32_F_90| false)
(= |memory_model::choice_rf_0_47_1_11_F_91| false)
(= |memory_model::choice_rf_0_47_2_13_F_92| false)
(= |memory_model::choice_rf_0_47_2_33_F_93| true)
(= |memory_model::choice_rf_1_4_0_32_F_94| false)
(= |memory_model::choice_rf_1_4_0_55_F_95| false)
(= |memory_model::choice_rf_1_4_2_13_F_96| true)
(= |memory_model::choice_rf_1_4_2_33_F_97| false)
(= |memory_model::choice_rf_2_25_0_32_F_98| false)
(= |memory_model::choice_rf_2_25_0_55_F_99| false)
(= |memory_model::choice_rf_2_25_1_11_F_100| true)
(= |memory_model::choice_rf_2_25_2_13_F_101| false)
(= |memory_model::choice_rf_0_62_0_33_F_102| false)
(= |memory_model::choice_rf_0_62_1_0_F_103| true)
(= |memory_model::choice_rf_0_62_2_17_F_104| false)
(= |memory_model::choice_rf_2_16_0_33_F_105| false)
(= |memory_model::choice_rf_2_16_1_0_F_106| false)
(= |memory_model::choice_rf_2_19_0_33_F_107| false)
(= |memory_model::choice_rf_2_19_1_0_F_108| false)
(= |memory_model::choice_rf_2_19_2_17_F_109| true)
(= |memory_model::choice_rf_2_22_0_33_F_110| false)
(= |memory_model::choice_rf_2_22_1_0_F_111| false)
(= |memory_model::choice_rf_2_22_2_17_F_112| true)
(= |memory_model::choice_ws-ext_0_9_1_23_T_113| true)
(= |memory_model::choice_ws-ext_0_9_2_39_T_114| true)
(= |memory_model::choice_ws-ext_1_23_2_39_T_115| true)
(= |memory_model::choice_ws-ext_0_18_1_17_F_116| true)
(= |memory_model::choice_ws-ext_0_18_2_35_F_117| true)
(= |memory_model::choice_ws-ext_0_57_1_17_F_118| false)
(= |memory_model::choice_ws-ext_0_57_2_35_F_119| false)
(= |memory_model::choice_ws-ext_1_17_2_35_F_120| true)
(= |memory_model::choice_ws-ext_0_10_1_21_F_121| true)
(= |memory_model::choice_ws-ext_0_10_2_37_F_122| true)
(= |memory_model::choice_ws-ext_1_21_2_37_F_123| false)
(= |memory_model::choice_ws-ext_0_11_1_8_F_124| true)
(= |memory_model::choice_ws-ext_0_12_2_20_F_125| true)
(= |memory_model::choice_ws-ext_0_13_2_23_F_126| true)
(= |memory_model::choice_ws-ext_0_19_1_15_F_127| true)
(= |memory_model::choice_ws-ext_0_20_1_14_F_128| true)
(= |memory_model::choice_ws-ext_0_22_1_10_F_129| true)
(= |memory_model::choice_ws-ext_0_23_2_8_F_130| true)
(= |memory_model::choice_ws-ext_0_23_2_32_F_131| true)
(= |memory_model::choice_ws-ext_0_24_2_11_F_132| true)
(= |memory_model::choice_ws-ext_0_53_2_11_F_133| false)
(= |memory_model::choice_ws-ext_0_25_1_9_F_134| true)
(= |memory_model::choice_ws-ext_0_25_2_10_F_135| true)
(= |memory_model::choice_ws-ext_1_9_2_10_F_136| false)
(= |memory_model::choice_ws-ext_0_26_2_9_F_137| true)
(= |memory_model::choice_ws-ext_0_26_2_31_F_138| true)
(= |memory_model::choice_ws-ext_0_29_1_13_F_139| true)
(= |memory_model::choice_ws-ext_0_29_2_14_F_140| true)
(= |memory_model::choice_ws-ext_1_13_2_14_F_141| false)
(= |memory_model::choice_ws-ext_0_30_1_16_F_142| true)
(= |memory_model::choice_ws-ext_0_30_2_12_F_143| true)
(= |memory_model::choice_ws-ext_0_30_2_34_F_144| true)
(= |memory_model::choice_ws-ext_0_56_1_16_F_145| false)
(= |memory_model::choice_ws-ext_0_56_2_12_F_146| false)
(= |memory_model::choice_ws-ext_0_56_2_34_F_147| false)
(= |memory_model::choice_ws-ext_1_16_2_12_F_148| false)
(= |memory_model::choice_ws-ext_1_16_2_34_F_149| true)
(= |memory_model::choice_ws-ext_0_31_1_12_F_150| true)
(= |memory_model::choice_ws-ext_0_31_2_15_F_151| true)
(= |memory_model::choice_ws-ext_1_12_2_15_F_152| false)
(= |memory_model::choice_ws-ext_0_32_1_11_F_153| true)
(= |memory_model::choice_ws-ext_0_32_2_13_F_154| true)
(= |memory_model::choice_ws-ext_0_32_2_33_F_155| true)
(= |memory_model::choice_ws-ext_0_55_1_11_F_156| false)
(= |memory_model::choice_ws-ext_0_55_2_13_F_157| false)
(= |memory_model::choice_ws-ext_0_55_2_33_F_158| false)
(= |memory_model::choice_ws-ext_1_11_2_13_F_159| false)
(= |memory_model::choice_ws-ext_1_11_2_33_F_160| true)
(= |memory_model::choice_ws-ext_0_33_1_0_F_161| true)
(= |memory_model::choice_ws-ext_0_33_2_17_F_162| true)
(= |memory_model::choice_ws-ext_1_0_2_17_F_163| false)
(= |memory_model::choice_ws-ext_0_16_1_19_F_164| true)
(= |memory_model::choice_ws-ext_0_17_1_18_F_165| true)
(= |main$tmp_guard0#3| #b00000001)
(= |__CPROVER_next_thread_id#3| #b00000000000000000000000000000001)
(= |__unbuffered_cnt#2| #b00000000000000000000000000000010)
(= |x$w_buff0_used#2| #b00000000)
(= |x$r_buff0_thd0#2| #b00000000)
(= |x$w_buff0#2| #b00000000000000000000000000000001)
(= |x$w_buff1_used#2| #b00000000)
(= |x$r_buff1_thd0#2| #b00000000)
(= |x$w_buff1#2| #b00000000000000000000000000000000)
(= |x#2| #b00000000000000000000000000000001)
(= |x#4| #b00000000000000000000000000000001)
(= |x$w_buff0_used#6| #b00000000)
(= |x$w_buff1_used#6| #b00000000)
(= |x$r_buff0_thd0#8| #b00000000)
(= |x$r_buff1_thd0#7| #b00000000)
(= |y#2| #b00000000000000000000000000000010)
(= |__unbuffered_p0_EAX#2| #b00000000000000000000000000000000)
(= |__unbuffered_p1_EAX#2| #b00000000000000000000000000000001)
(= |__unbuffered_p1_EBX#2| #b00000000000000000000000000000001)
(= |main$tmp_guard1#2| #b00000000)
(= |main$tmp_guard1#3| #b10000000)
(= |main$tmp_guard1#6| #b00000000)
(= |pthread_create::1::this_thread_id!1@0#0| #b00000000000000000000000000000000)
(= |x#6| #b00000000000000000000000000000000)
(= |x$w_buff0_used#11| #b00000001)
(= |x$r_buff0_thd1#2| #b00000000)
(= |x$w_buff1_used#9| #b00000000)
(= |x$r_buff1_thd1#2| #b00000000)
(= |x$w_buff0#4| #b00000000000000000000000000000001)
(= |x$w_buff1#4| #b00000000000000000000000000000000)
(= |__unbuffered_cnt#4| #b00000000000000000000000000000001)
(= |pthread_create::1::this_thread_id!2@0#0| #b00000000000000000000000000000000)
(= |x$w_buff0#7| #b00000000000000000000000000000000)
(= |x$w_buff0_used#14| #b00000000)
(= |x$r_buff0_thd0#11| #b00000000)
(= |x$r_buff1_thd0#9| #b00000000)
(= |x$r_buff1_thd0#10| #b10000000)
(= |x$r_buff0_thd1#5| #b00000000)
(= |x$r_buff1_thd1#5| #b00000000)
(= |x$r_buff1_thd1#6| #b10000000)
(= |x$r_buff0_thd2#2| #b00000000)
(= |x$r_buff1_thd2#2| #b00000000)
(= |x$r_buff1_thd2#3| #b10000000)
(= |x$r_buff0_thd2#4| #b00000001)
(= |y#5| #b00000000000000000000000000000001)
(= |y#6| #b10000000000000000000000000000000)
(= |y#8| #b00000000000000000000000000000001)
(= |__unbuffered_p1_EAX#4| #b00000000000000000000000000000001)
(= |__unbuffered_p1_EAX#5| #b10000000000000000000000000000000)
(= |y#10| #b00000000000000000000000000000001)
(= |__unbuffered_p1_EBX#4| #b00000000000000000000000000000001)
(= |__unbuffered_p1_EBX#5| #b10000000000000000000000000000000)
(= |x$w_buff0_used#17| #b00000001)
(= |x$r_buff0_thd2#6| #b00000001)
(= |x$w_buff0#10| #b00000000000000000000000000000001)
(= |x$w_buff1_used#13| #b00000000)
(= |x$r_buff1_thd2#5| #b00000000)
(= |x$w_buff1#8| #b00000000000000000000000000000000)
(= |x#10| #b00000000000000000000000000000000)
(= |x#12| #b00000000000000000000000000000001)
(= |x$w_buff0_used#21| #b00000000)
(= |x$w_buff1_used#17| #b00000000)
(= |x$r_buff0_thd2#12| #b00000001)
(= |x$r_buff1_thd2#10| #b00000000)
(= |__unbuffered_cnt#7| #b00000000000000000000000000000000)
(= |__unbuffered_cnt#9| #b00000000000000000000000000000001)
(= |__CPROVER_threads_exited#1$wclk$8| #b01100111)
(= |__CPROVER_threads_exited#2$rclk$8| #b11110101)
(= |__CPROVER_threads_exited#5$wclk$8| #b11111010)
(= |__CPROVER_threads_exited#4$rclk$8| #b11111001)
(= |__CPROVER_threads_exited#3$wclk$8| #b11111000)
(= |x#9$wclk$8| #b11010111)
(= |x#2$rclk$8| #b11011110)
(= |x#13$wclk$8| #b11011001)
(= |x#1$wclk$8| #b01110000)
(= |x#6$rclk$8| #b11010111)
(= |x#5$wclk$8| #b11011110)
(= |x#10$rclk$8| #b11011001)
(= |__unbuffered_cnt#6$wclk$8| #b11011011)
(= |__unbuffered_cnt#2$rclk$8| #b11011100)
(= |__unbuffered_cnt#10$wclk$8| #b11011010)
(= |__unbuffered_cnt#1$wclk$8| #b01101000)
(= |__unbuffered_cnt#4$rclk$8| #b11011011)
(= |__unbuffered_cnt#7$rclk$8| #b11011010)
(= |__unbuffered_p0_EAX#4$wclk$8| #b11010111)
(= |__unbuffered_p0_EAX#2$rclk$8| #b11011111)
(= |__unbuffered_p1_EAX#6$wclk$8| #b11001010)
(= |__unbuffered_p1_EAX#2$rclk$8| #b11011111)
(= |__unbuffered_p1_EAX#1$wclk$8| #b01101010)
(= |__unbuffered_p1_EAX#5$rclk$8| #b11001010)
(= |__unbuffered_p1_EBX#6$wclk$8| #b11001011)
(= |__unbuffered_p1_EBX#2$rclk$8| #b11011111)
(= |__unbuffered_p1_EBX#1$wclk$8| #b01101011)
(= |__unbuffered_p1_EBX#5$rclk$8| #b11001011)
(= |main$tmp_guard1#5| #b00000000)
(= |x$r_buff0_thd0#1$wclk$8| #b01110011)
(= |x$r_buff0_thd0#11$rclk$8| #b11001000)
(= |x$r_buff0_thd0#10$wclk$8| #b11011110)
(= |x$r_buff0_thd1#1$wclk$8| #b01110101)
(= |x$r_buff0_thd1#2$rclk$8| #b11010111)
(= |x$r_buff0_thd1#5$rclk$8| #b11001000)
(= |x$r_buff0_thd1#4$wclk$8| #b11010111)
(= |x$r_buff0_thd2#1$wclk$8| #b01110110)
(= |x$r_buff0_thd2#2$rclk$8| #b11001000)
(= |x$r_buff0_thd2#6$rclk$8| #b11011001)
(= |x$r_buff1_thd0#11$wclk$8| #b11001000)
(= |x$r_buff1_thd0#2$rclk$8| #b11011110)
(= |x$r_buff1_thd0#1$wclk$8| #b01110111)
(= |x$r_buff1_thd0#10$rclk$8| #b11001000)
(= |x$r_buff1_thd0#8$wclk$8| #b11011110)
(= |x$r_buff1_thd1#1$wclk$8| #b01111000)
(= |x$r_buff1_thd1#2$rclk$8| #b11010111)
(= |x$r_buff1_thd1#7$wclk$8| #b11001000)
(= |x$r_buff1_thd1#6$rclk$8| #b11001000)
(= |x$r_buff1_thd1#4$wclk$8| #b11010111)
(= |x$r_buff1_thd2#1$wclk$8| #b01111001)
(= |x$r_buff1_thd2#3$rclk$8| #b11001000)
(= |x$r_buff1_thd2#5$rclk$8| #b11011001)
(= |x$w_buff0#6$wclk$8| #b11010111)
(= |x$w_buff0#2$rclk$8| #b11011110)
(= |x$w_buff0#9$wclk$8| #b11001000)
(= |x$w_buff0#1$wclk$8| #b01111100)
(= |x$w_buff0#4$rclk$8| #b11010111)
(= |x$w_buff0#7$rclk$8| #b11001000)
(= |x$w_buff0#10$rclk$8| #b11011001)
(= |x$w_buff0_used#13$wclk$8| #b11010111)
(= |x$w_buff0_used#2$rclk$8| #b11011110)
(= |x$w_buff0_used#16$wclk$8| #b11001000)
(= |x$w_buff0_used#25$wclk$8| #b11011001)
(= |x$w_buff0_used#1$wclk$8| #b01111101)
(= |x$w_buff0_used#11$rclk$8| #b11010111)
(= |x$w_buff0_used#10$wclk$8| #b11011110)
(= |x$w_buff0_used#14$rclk$8| #b11001000)
(= |x$w_buff0_used#17$rclk$8| #b11011001)
(= |x$w_buff1#6$wclk$8| #b11010111)
(= |x$w_buff1#2$rclk$8| #b11011110)
(= |x$w_buff1#7$wclk$8| #b11001000)
(= |x$w_buff1#1$wclk$8| #b01111110)
(= |x$w_buff1#4$rclk$8| #b11010111)
(= |x$w_buff1#8$rclk$8| #b11011001)
(= |x$w_buff1_used#11$wclk$8| #b11010111)
(= |x$w_buff1_used#2$rclk$8| #b11011110)
(= |x$w_buff1_used#12$wclk$8| #b11001000)
(= |x$w_buff1_used#19$wclk$8| #b11011001)
(= |x$w_buff1_used#1$wclk$8| #b01111111)
(= |x$w_buff1_used#9$rclk$8| #b11010111)
(= |x$w_buff1_used#8$wclk$8| #b11011110)
(= |x$w_buff1_used#13$rclk$8| #b11011001)
(= |y#4$wclk$8| #b11001111)
(= |y#2$rclk$8| #b11011111)
(= |y#7$wclk$8| #b11001001)
(= |y#1$wclk$8| #b10000000)
(= |y#6$rclk$8| #b11001001)
(= |y#8$rclk$8| #b11001010)
(= |y#10$rclk$8| #b11001011)
(= |__unbuffered_p0_EAX#1$wclk$8| #b01101001)
(= |x$flush_delayed#1$wclk$8| #b01110001)
(= |x$flush_delayed#3$wclk$8| #b11010111)
(= |x$mem_tmp#1$wclk$8| #b01110010)
(= |x$mem_tmp#2$wclk$8| #b11010111)
(= |x$r_buff0_thd2#5$wclk$8| #b11001000)
(= |x$r_buff0_thd2#14$wclk$8| #b11011001)
(= |x$r_buff1_thd2#4$wclk$8| #b11001000)
(= |x$r_buff1_thd2#11$wclk$8| #b11011001)
(= |weak$$choice0#1$wclk$8| #b01101110)
(= |weak$$choice0#2$wclk$8| #b11010111)
(= |weak$$choice2#1$wclk$8| #b01101111)
(= |weak$$choice2#2$wclk$8| #b11010111)
(= t1$37$spwnclk$8 #b10000100)
(= t1$42$spwnclk$8 #b10001000)
(= |main::1::t1644!0@1$wclk$8| #b00000000)
(= |__CPROVER_dead_object#1$wclk$8| #b01000000)
(= |__CPROVER_deallocated#1$wclk$8| #b01100000)
(= |__CPROVER_malloc_is_new_array#1$wclk$8| #b01100001)
(= |__CPROVER_malloc_object#1$wclk$8| #b01100010)
(= |__CPROVER_malloc_size#1$wclk$8| #b01100011)
(= |__CPROVER_memory_leak#1$wclk$8| #b01100100)
(= |__CPROVER_next_thread_id#1$wclk$8| #b01100101)
(= |__CPROVER_pipe_count#1$wclk$8| #b01100110)
(= |main$tmp_guard0#1$wclk$8| #b01101100)
(= |main$tmp_guard1#1$wclk$8| #b01101101)
(= |x$read_delayed#1$wclk$8| #b01111010)
(= |x$read_delayed_var#1$wclk$8| #b01111011)
(= |main::1::t1643!0@1#1$wclk$8| #b10000001)
(= |__CPROVER_next_thread_id#2$wclk$8| #b10000010)
(= |main::1::t1643!0@1#2$wclk$8| #b10000011)
(= |main::1::t1644!0@1#1$wclk$8| #b10000101)
(= |__CPROVER_next_thread_id#3$rclk$8| #b10000110)
(= |__CPROVER_next_thread_id#5$wclk$8| #b10000110)
(= |main::1::t1644!0@1#2$wclk$8| #b10000111)
(= |main$tmp_guard0#2$wclk$8| #b11011100)
(= |main$tmp_guard0#3$rclk$8| #b11011101)
(= |x$r_buff0_thd0#2$rclk$8| #b11011110)
(= |main$tmp_guard1#3$rclk$8| #b11011111)
(= |main$tmp_guard1#4$wclk$8| #b11011111)
(= |main$tmp_guard1#5$rclk$8| #b11111011)
(= |main$tmp_guard1#6$rclk$8| #b11111111)
(= array_of.0 @fun_5)
(= |__CPROVER_threads_exited#2| @fun_5)
(= |__CPROVER_threads_exited#4| @fun_7)
(function @fun_5
 (type (Array (_ BitVec 32) (_ BitVec 1)))
 (= (@fun_5 #b00000000000000000000000000000000) #b0)
 (default #b1))
(function @fun_7
 (type (Array (_ BitVec 32) (_ BitVec 1)))
 (default #b1))

real	0m0.014s
user	0m0.011s
sys	0m0.003s
State: AC Run_time: 0.015930891036987305